p tw 65 72
1 2
2 13
3 4
4 5
4 6
5 61
6 7
7 8
8 9
9 10
10 11
11 12
11 15
12 14
13 24
14 8
15 16
16 17
17 18
18 19
19 20
20 21
20 22
21 22
22 23
23 25
24 35
25 26
26 27
26 61
27 28
28 29
29 30
30 31
31 32
32 33
33 34
33 17
34 36
35 46
36 37
37 38
38 39
38 58
39 40
40 41
41 42
42 43
43 44
44 45
45 47
46 57
46 63
47 48
48 49
49 50
50 51
50 58
51 52
52 53
53 54
54 55
55 56
56 36
57 63
58 59
59 60
60 31
61 62
63 64
64 65
65 3
